; https=//stackoverflow.com/questions/29935088/how-to-remove-substring-that-is-in-another-column-in-excel
(set-logic SLIA)
(synth-fun f ((_arg_0 String) (_arg_1 String)) String 
 ( (Start String (ntString)) 
 (ntString String (
	_arg_0 _arg_1
	"" " "
	(str.++ ntString ntString) 
	(str.replace ntString ntString ntString) 
	(str.at ntString ntInt)
	(int.to.str ntInt)
	(ite ntBool ntString ntString)
	(str.substr ntString ntInt ntInt)
)) 
 (ntInt Int (
	
	1 0 -1
	(+ ntInt ntInt)
	(- ntInt ntInt)
	(str.len ntString)
	(str.to.int ntString)
	(ite ntBool ntInt ntInt)
	(str.indexof ntString ntString ntInt)
)) 
 (ntBool Bool (
	
	true false
	(= ntInt ntInt)
	(str.prefixof ntString ntString)
	(str.suffixof ntString ntString)
	(str.contains ntString ntString)
)) ))
(constraint (= (f "Item 1 AQ-S810W-2AVDF" "AQ-S810W-2AVDF") "Item 1"))
(constraint (= (f "Item 2 AQ-230A-1DUQ" "AQ-230A") "Item 2 -1DUQ"))
(check-synth)
